4321
4536
8995
1984
3974
4521
6128
3196
3682
3644
2603
4188
9342
1042
5531
7592
5931
7983
6920
6335
5475
3564
7170
7455
785
5908
7782
3227
4369
6007
1536
3191
8177
478
2962
4062
1807
9846
6057
4248
1494
4818
2633
4983
9497
853
1259
5946
2315
3606
584
